language Essence 1.3

letting costTC be
        function((1, 1) --> 11, (1, 2) --> 8, (1, 3) --> 1, (1, 4) --> 9, (1, 5) --> 9, (1, 6) --> 14, (1, 7) --> 10,
                 (2, 1) --> 1, (2, 2) --> 8, (2, 3) --> 1, (2, 4) --> 6, (2, 5) --> 4, (2, 6) --> 4, (2, 7) --> 9,
                 (3, 1) --> 5, (3, 2) --> 9, (3, 3) --> 10, (3, 4) --> 15, (3, 5) --> 14, (3, 6) --> 11, (3, 7) --> 2,
                 (4, 1) --> 9, (4, 2) --> 2, (4, 3) --> 1, (4, 4) --> 14, (4, 5) --> 15, (4, 6) --> 15, (4, 7) --> 2,
                 (5, 1) --> 8, (5, 2) --> 10, (5, 3) --> 11, (5, 4) --> 15, (5, 5) --> 15, (5, 6) --> 3, (5, 7) --> 10,
                 (6, 1) --> 2, (6, 2) --> 10, (6, 3) --> 9, (6, 4) --> 11, (6, 5) --> 5, (6, 6) --> 7, (6, 7) --> 10,
                 (7, 1) --> 7, (7, 2) --> 2, (7, 3) --> 10, (7, 4) --> 6, (7, 5) --> 13, (7, 6) --> 9, (7, 7) --> 6,
                 (8, 1) --> 3, (8, 2) --> 6, (8, 3) --> 14, (8, 4) --> 1, (8, 5) --> 3, (8, 6) --> 7, (8, 7) --> 12,
                 (9, 1) --> 4, (9, 2) --> 8, (9, 3) --> 15, (9, 4) --> 1, (9, 5) --> 10, (9, 6) --> 6, (9, 7) --> 5,
                 (10, 1) --> 9, (10, 2) --> 10, (10, 3) --> 9, (10, 4) --> 2, (10, 5) --> 8, (10, 6) --> 13,
                 (10, 7) --> 3, (11, 1) --> 8, (11, 2) --> 2, (11, 3) --> 9, (11, 4) --> 11, (11, 5) --> 5,
                 (11, 6) --> 3, (11, 7) --> 5, (12, 1) --> 3, (12, 2) --> 14, (12, 3) --> 3, (12, 4) --> 11,
                 (12, 5) --> 13, (12, 6) --> 1, (12, 7) --> 15, (13, 1) --> 13, (13, 2) --> 2, (13, 3) --> 3,
                 (13, 4) --> 8, (13, 5) --> 15, (13, 6) --> 13, (13, 7) --> 6, (14, 1) --> 12, (14, 2) --> 4,
                 (14, 3) --> 6, (14, 4) --> 13, (14, 5) --> 4, (14, 6) --> 5, (14, 7) --> 2, (15, 1) --> 10,
                 (15, 2) --> 9, (15, 3) --> 13, (15, 4) --> 3, (15, 5) --> 5, (15, 6) --> 15, (15, 7) --> 3)
letting costWT be
        function((1, 1) --> 3, (1, 2) --> 2, (1, 3) --> 2, (1, 4) --> 2, (1, 5) --> 3, (1, 6) --> 3, (1, 7) --> 1,
                 (1, 8) --> 1, (1, 9) --> 1, (1, 10) --> 2, (1, 11) --> 1, (1, 12) --> 1, (1, 13) --> 3, (1, 14) --> 1,
                 (1, 15) --> 2, (2, 1) --> 2, (2, 2) --> 3, (2, 3) --> 2, (2, 4) --> 3, (2, 5) --> 2, (2, 6) --> 2,
                 (2, 7) --> 3, (2, 8) --> 1, (2, 9) --> 2, (2, 10) --> 3, (2, 11) --> 2, (2, 12) --> 2, (2, 13) --> 2,
                 (2, 14) --> 1, (2, 15) --> 3, (3, 1) --> 3, (3, 2) --> 1, (3, 3) --> 1, (3, 4) --> 2, (3, 5) --> 2,
                 (3, 6) --> 1, (3, 7) --> 3, (3, 8) --> 2, (3, 9) --> 1, (3, 10) --> 2, (3, 11) --> 1, (3, 12) --> 2,
                 (3, 13) --> 1, (3, 14) --> 1, (3, 15) --> 1, (4, 1) --> 2, (4, 2) --> 3, (4, 3) --> 1, (4, 4) --> 1,
                 (4, 5) --> 2, (4, 6) --> 2, (4, 7) --> 1, (4, 8) --> 2, (4, 9) --> 3, (4, 10) --> 1, (4, 11) --> 2,
                 (4, 12) --> 3, (4, 13) --> 3, (4, 14) --> 3, (4, 15) --> 1, (5, 1) --> 1, (5, 2) --> 2, (5, 3) --> 3,
                 (5, 4) --> 2, (5, 5) --> 2, (5, 6) --> 2, (5, 7) --> 3, (5, 8) --> 2, (5, 9) --> 1, (5, 10) --> 1,
                 (5, 11) --> 2, (5, 12) --> 3, (5, 13) --> 3, (5, 14) --> 3, (5, 15) --> 3, (6, 1) --> 2, (6, 2) --> 3,
                 (6, 3) --> 2, (6, 4) --> 1, (6, 5) --> 3, (6, 6) --> 2, (6, 7) --> 1, (6, 8) --> 1, (6, 9) --> 3,
                 (6, 10) --> 1, (6, 11) --> 2, (6, 12) --> 2, (6, 13) --> 3, (6, 14) --> 2, (6, 15) --> 2, (7, 1) --> 3,
                 (7, 2) --> 3, (7, 3) --> 1, (7, 4) --> 2, (7, 5) --> 3, (7, 6) --> 2, (7, 7) --> 2, (7, 8) --> 3,
                 (7, 9) --> 2, (7, 10) --> 2, (7, 11) --> 1, (7, 12) --> 2, (7, 13) --> 2, (7, 14) --> 2, (7, 15) --> 3,
                 (8, 1) --> 3, (8, 2) --> 1, (8, 3) --> 1, (8, 4) --> 1, (8, 5) --> 2, (8, 6) --> 3, (8, 7) --> 3,
                 (8, 8) --> 1, (8, 9) --> 3, (8, 10) --> 3, (8, 11) --> 3, (8, 12) --> 3, (8, 13) --> 2, (8, 14) --> 3,
                 (8, 15) --> 3, (9, 1) --> 1, (9, 2) --> 2, (9, 3) --> 3, (9, 4) --> 3, (9, 5) --> 1, (9, 6) --> 1,
                 (9, 7) --> 2, (9, 8) --> 3, (9, 9) --> 2, (9, 10) --> 1, (9, 11) --> 1, (9, 12) --> 1, (9, 13) --> 1,
                 (9, 14) --> 2, (9, 15) --> 2, (10, 1) --> 2, (10, 2) --> 1, (10, 3) --> 1, (10, 4) --> 2,
                 (10, 5) --> 1, (10, 6) --> 1, (10, 7) --> 1, (10, 8) --> 1, (10, 9) --> 2, (10, 10) --> 1,
                 (10, 11) --> 2, (10, 12) --> 2, (10, 13) --> 2, (10, 14) --> 2, (10, 15) --> 1, (11, 1) --> 3,
                 (11, 2) --> 3, (11, 3) --> 1, (11, 4) --> 1, (11, 5) --> 3, (11, 6) --> 2, (11, 7) --> 2,
                 (11, 8) --> 1, (11, 9) --> 3, (11, 10) --> 1, (11, 11) --> 2, (11, 12) --> 1, (11, 13) --> 3,
                 (11, 14) --> 3, (11, 15) --> 3, (12, 1) --> 2, (12, 2) --> 1, (12, 3) --> 1, (12, 4) --> 2,
                 (12, 5) --> 3, (12, 6) --> 2, (12, 7) --> 3, (12, 8) --> 1, (12, 9) --> 1, (12, 10) --> 3,
                 (12, 11) --> 2, (12, 12) --> 1, (12, 13) --> 2, (12, 14) --> 2, (12, 15) --> 3, (13, 1) --> 1,
                 (13, 2) --> 1, (13, 3) --> 1, (13, 4) --> 1, (13, 5) --> 3, (13, 6) --> 2, (13, 7) --> 1,
                 (13, 8) --> 2, (13, 9) --> 3, (13, 10) --> 2, (13, 11) --> 2, (13, 12) --> 3, (13, 13) --> 3,
                 (13, 14) --> 3, (13, 15) --> 2, (14, 1) --> 1, (14, 2) --> 2, (14, 3) --> 1, (14, 4) --> 3,
                 (14, 5) --> 2, (14, 6) --> 1, (14, 7) --> 2, (14, 8) --> 3, (14, 9) --> 2, (14, 10) --> 1,
                 (14, 11) --> 3, (14, 12) --> 2, (14, 13) --> 2, (14, 14) --> 1, (14, 15) --> 2, (15, 1) --> 1,
                 (15, 2) --> 2, (15, 3) --> 1, (15, 4) --> 3, (15, 5) --> 3, (15, 6) --> 3, (15, 7) --> 1,
                 (15, 8) --> 3, (15, 9) --> 3, (15, 10) --> 3, (15, 11) --> 2, (15, 12) --> 1, (15, 13) --> 1,
                 (15, 14) --> 1, (15, 15) --> 1, (16, 1) --> 1, (16, 2) --> 3, (16, 3) --> 2, (16, 4) --> 1,
                 (16, 5) --> 2, (16, 6) --> 2, (16, 7) --> 2, (16, 8) --> 3, (16, 9) --> 1, (16, 10) --> 1,
                 (16, 11) --> 3, (16, 12) --> 2, (16, 13) --> 3, (16, 14) --> 2, (16, 15) --> 2, (17, 1) --> 3,
                 (17, 2) --> 1, (17, 3) --> 3, (17, 4) --> 2, (17, 5) --> 3, (17, 6) --> 2, (17, 7) --> 2,
                 (17, 8) --> 1, (17, 9) --> 2, (17, 10) --> 2, (17, 11) --> 2, (17, 12) --> 1, (17, 13) --> 2,
                 (17, 14) --> 2, (17, 15) --> 1, (18, 1) --> 2, (18, 2) --> 1, (18, 3) --> 3, (18, 4) --> 2,
                 (18, 5) --> 1, (18, 6) --> 1, (18, 7) --> 3, (18, 8) --> 3, (18, 9) --> 3, (18, 10) --> 1,
                 (18, 11) --> 2, (18, 12) --> 3, (18, 13) --> 3, (18, 14) --> 3, (18, 15) --> 2, (19, 1) --> 2,
                 (19, 2) --> 1, (19, 3) --> 1, (19, 4) --> 2, (19, 5) --> 3, (19, 6) --> 2, (19, 7) --> 1,
                 (19, 8) --> 1, (19, 9) --> 1, (19, 10) --> 2, (19, 11) --> 1, (19, 12) --> 3, (19, 13) --> 1,
                 (19, 14) --> 1, (19, 15) --> 2, (20, 1) --> 3, (20, 2) --> 3, (20, 3) --> 3, (20, 4) --> 3,
                 (20, 5) --> 3, (20, 6) --> 2, (20, 7) --> 3, (20, 8) --> 3, (20, 9) --> 2, (20, 10) --> 2,
                 (20, 11) --> 2, (20, 12) --> 2, (20, 13) --> 2, (20, 14) --> 3, (20, 15) --> 3, (21, 1) --> 1,
                 (21, 2) --> 2, (21, 3) --> 2, (21, 4) --> 3, (21, 5) --> 1, (21, 6) --> 3, (21, 7) --> 3,
                 (21, 8) --> 2, (21, 9) --> 2, (21, 10) --> 2, (21, 11) --> 1, (21, 12) --> 2, (21, 13) --> 3,
                 (21, 14) --> 2, (21, 15) --> 2, (22, 1) --> 2, (22, 2) --> 1, (22, 3) --> 2, (22, 4) --> 2,
                 (22, 5) --> 1, (22, 6) --> 2, (22, 7) --> 1, (22, 8) --> 3, (22, 9) --> 3, (22, 10) --> 3,
                 (22, 11) --> 2, (22, 12) --> 2, (22, 13) --> 1, (22, 14) --> 2, (22, 15) --> 1, (23, 1) --> 2,
                 (23, 2) --> 1, (23, 3) --> 3, (23, 4) --> 3, (23, 5) --> 2, (23, 6) --> 1, (23, 7) --> 1,
                 (23, 8) --> 1, (23, 9) --> 2, (23, 10) --> 3, (23, 11) --> 2, (23, 12) --> 2, (23, 13) --> 2,
                 (23, 14) --> 3, (23, 15) --> 3, (24, 1) --> 2, (24, 2) --> 1, (24, 3) --> 3, (24, 4) --> 1,
                 (24, 5) --> 3, (24, 6) --> 3, (24, 7) --> 2, (24, 8) --> 1, (24, 9) --> 3, (24, 10) --> 2,
                 (24, 11) --> 2, (24, 12) --> 3, (24, 13) --> 2, (24, 14) --> 1, (24, 15) --> 1, (25, 1) --> 1,
                 (25, 2) --> 2, (25, 3) --> 3, (25, 4) --> 2, (25, 5) --> 1, (25, 6) --> 3, (25, 7) --> 2,
                 (25, 8) --> 2, (25, 9) --> 1, (25, 10) --> 2, (25, 11) --> 3, (25, 12) --> 1, (25, 13) --> 2,
                 (25, 14) --> 2, (25, 15) --> 3, (26, 1) --> 2, (26, 2) --> 2, (26, 3) --> 1, (26, 4) --> 1,
                 (26, 5) --> 2, (26, 6) --> 2, (26, 7) --> 1, (26, 8) --> 3, (26, 9) --> 2, (26, 10) --> 1,
                 (26, 11) --> 3, (26, 12) --> 2, (26, 13) --> 1, (26, 14) --> 2, (26, 15) --> 2, (27, 1) --> 2,
                 (27, 2) --> 1, (27, 3) --> 2, (27, 4) --> 1, (27, 5) --> 1, (27, 6) --> 2, (27, 7) --> 1,
                 (27, 8) --> 2, (27, 9) --> 2, (27, 10) --> 1, (27, 11) --> 1, (27, 12) --> 3, (27, 13) --> 2,
                 (27, 14) --> 1, (27, 15) --> 3, (28, 1) --> 1, (28, 2) --> 2, (28, 3) --> 2, (28, 4) --> 2,
                 (28, 5) --> 2, (28, 6) --> 2, (28, 7) --> 2, (28, 8) --> 1, (28, 9) --> 1, (28, 10) --> 1,
                 (28, 11) --> 3, (28, 12) --> 2, (28, 13) --> 2, (28, 14) --> 3, (28, 15) --> 3, (29, 1) --> 3,
                 (29, 2) --> 2, (29, 3) --> 2, (29, 4) --> 1, (29, 5) --> 3, (29, 6) --> 2, (29, 7) --> 3,
                 (29, 8) --> 3, (29, 9) --> 2, (29, 10) --> 2, (29, 11) --> 3, (29, 12) --> 3, (29, 13) --> 1,
                 (29, 14) --> 3, (29, 15) --> 3, (30, 1) --> 3, (30, 2) --> 2, (30, 3) --> 3, (30, 4) --> 2,
                 (30, 5) --> 3, (30, 6) --> 3, (30, 7) --> 2, (30, 8) --> 3, (30, 9) --> 2, (30, 10) --> 2,
                 (30, 11) --> 3, (30, 12) --> 1, (30, 13) --> 1, (30, 14) --> 1, (30, 15) --> 1, (31, 1) --> 1,
                 (31, 2) --> 3, (31, 3) --> 1, (31, 4) --> 3, (31, 5) --> 1, (31, 6) --> 3, (31, 7) --> 1,
                 (31, 8) --> 3, (31, 9) --> 1, (31, 10) --> 2, (31, 11) --> 3, (31, 12) --> 2, (31, 13) --> 1,
                 (31, 14) --> 1, (31, 15) --> 2, (32, 1) --> 2, (32, 2) --> 3, (32, 3) --> 2, (32, 4) --> 1,
                 (32, 5) --> 1, (32, 6) --> 2, (32, 7) --> 3, (32, 8) --> 2, (32, 9) --> 3, (32, 10) --> 3,
                 (32, 11) --> 2, (32, 12) --> 2, (32, 13) --> 2, (32, 14) --> 2, (32, 15) --> 2, (33, 1) --> 3,
                 (33, 2) --> 2, (33, 3) --> 3, (33, 4) --> 2, (33, 5) --> 3, (33, 6) --> 1, (33, 7) --> 1,
                 (33, 8) --> 1, (33, 9) --> 3, (33, 10) --> 1, (33, 11) --> 2, (33, 12) --> 2, (33, 13) --> 1,
                 (33, 14) --> 3, (33, 15) --> 3, (34, 1) --> 2, (34, 2) --> 3, (34, 3) --> 2, (34, 4) --> 1,
                 (34, 5) --> 1, (34, 6) --> 2, (34, 7) --> 2, (34, 8) --> 2, (34, 9) --> 3, (34, 10) --> 2,
                 (34, 11) --> 2, (34, 12) --> 3, (34, 13) --> 1, (34, 14) --> 1, (34, 15) --> 3, (35, 1) --> 1,
                 (35, 2) --> 2, (35, 3) --> 3, (35, 4) --> 3, (35, 5) --> 1, (35, 6) --> 2, (35, 7) --> 2,
                 (35, 8) --> 3, (35, 9) --> 1, (35, 10) --> 3, (35, 11) --> 1, (35, 12) --> 2, (35, 13) --> 2,
                 (35, 14) --> 1, (35, 15) --> 1)
letting demand be function(1 --> 10, 2 --> 6, 3 --> 2, 4 --> 5, 5 --> 8, 6 --> 6, 7 --> 10)
letting maxCost be 22
letting n_customer be 7
letting n_transshipment be 15
letting n_warehouses be 35
letting stock be
        function(1 --> 2, 2 --> 6, 3 --> 3, 4 --> 3, 5 --> 4, 6 --> 2, 7 --> 3, 8 --> 5, 9 --> 5, 10 --> 6, 11 --> 3,
                 12 --> 6, 13 --> 6, 14 --> 3, 15 --> 2, 16 --> 6, 17 --> 4, 18 --> 6, 19 --> 2, 20 --> 6, 21 --> 4,
                 22 --> 6, 23 --> 5, 24 --> 5, 25 --> 5, 26 --> 5, 27 --> 5, 28 --> 2, 29 --> 2, 30 --> 6, 31 --> 2,
                 32 --> 2, 33 --> 5, 34 --> 4, 35 --> 5)
